(set-info :smt-lib-version 2.6)
(set-logic LIA)
(set-info
  :source |
 Generated by PSyCO 0.1
 More info in N. P. Lopes and J. Monteiro. Weakest Precondition Synthesis for
 Compiler Optimizations, VMCAI'14.
|)
(set-info :category "industrial")
(set-info :status unsat)
(declare-fun W_S2_V5 () Bool)
(declare-fun W_S2_V2 () Bool)
(declare-fun W_S2_V3 () Bool)
(declare-fun W_S2_V1 () Bool)
(declare-fun W_S1_V4 () Bool)
(declare-fun W_S1_V5 () Bool)
(declare-fun W_S1_V2 () Bool)
(declare-fun W_S1_V1 () Bool)
(declare-fun R_S2_V4 () Bool)
(declare-fun R_S2_V5 () Bool)
(declare-fun R_S2_V2 () Bool)
(declare-fun R_S2_V3 () Bool)
(declare-fun R_S2_V1 () Bool)
(declare-fun R_B1_V4 () Bool)
(declare-fun R_B1_V5 () Bool)
(declare-fun R_B1_V2 () Bool)
(declare-fun R_B1_V3 () Bool)
(declare-fun R_B1_V1 () Bool)
(declare-fun DISJ_W_S2_R_B1 () Bool)
(declare-fun DISJ_W_S2_R_S2 () Bool)
(declare-fun R_S1_V4 () Bool)
(declare-fun R_S1_V5 () Bool)
(declare-fun R_S1_V2 () Bool)
(declare-fun R_S1_V3 () Bool)
(declare-fun R_S1_V1 () Bool)
(declare-fun DISJ_W_S2_R_S1 () Bool)
(declare-fun DISJ_W_S1_W_S2 () Bool)
(declare-fun DISJ_W_S1_R_B1 () Bool)
(declare-fun DISJ_W_S1_R_S2 () Bool)
(declare-fun DISJ_W_S1_R_S1 () Bool)
(declare-fun W_S2_V4 () Bool)
(declare-fun W_S1_V3 () Bool)
(assert
 (let
 (($x2106
   (forall
    ((V1_0 Int) (V3_0 Int) 
     (V2_0 Int) (V5_0 Int) 
     (V4_0 Int) (MW_S1_V1 Bool) 
     (MW_S1_V3 Bool) (MW_S1_V2 Bool) 
     (MW_S1_V5 Bool) (MW_S1_V4 Bool) 
     (MW_S2_V1 Bool) (MW_S2_V3 Bool) 
     (MW_S2_V2 Bool) (MW_S2_V5 Bool) 
     (MW_S2_V4 Bool) (S2_V4_!277 Int) 
     (S2_V4_!289 Int) (S2_V4_!294 Int) 
     (B1_!272 Bool) (B1_!278 Bool) 
     (B1_!284 Bool) (S2_V5_!276 Int) 
     (S2_V5_!288 Int) (S2_V5_!293 Int) 
     (S1_V3_!280 Int) (S1_V2_!281 Int) 
     (S1_V1_!279 Int) (S1_V5_!282 Int) 
     (S1_V4_!283 Int) (S2_V1_!273 Int) 
     (S2_V1_!285 Int) (S2_V1_!290 Int) 
     (S2_V2_!275 Int) (S2_V2_!287 Int) 
     (S2_V2_!292 Int) (S2_V3_!274 Int) 
     (S2_V3_!286 Int) (S2_V3_!291 Int))
    (let ((?x1920 (ite MW_S2_V4 S2_V4_!294 V4_0)))
    (let ((?x2225 (ite MW_S2_V4 S2_V4_!277 V4_0)))
    (let ((?x2159 (ite MW_S1_V4 S1_V4_!283 ?x2225)))
    (let (($x1908 (= ?x2159 ?x1920)))
    (let ((?x2244 (ite MW_S2_V5 S2_V5_!293 V5_0)))
    (let ((?x2081 (ite MW_S2_V5 S2_V5_!276 V5_0)))
    (let ((?x2264 (ite MW_S1_V5 S1_V5_!282 ?x2081)))
    (let (($x2053 (= ?x2264 ?x2244)))
    (let ((?x2252 (ite MW_S2_V2 S2_V2_!292 V2_0)))
    (let ((?x1995 (ite MW_S2_V2 S2_V2_!275 V2_0)))
    (let ((?x2055 (ite MW_S1_V2 S1_V2_!281 ?x1995)))
    (let (($x2058 (= ?x2055 ?x2252)))
    (let ((?x2271 (ite MW_S2_V3 S2_V3_!291 V3_0)))
    (let ((?x2283 (ite MW_S2_V3 S2_V3_!274 V3_0)))
    (let ((?x2177 (ite MW_S1_V3 S1_V3_!280 ?x2283)))
    (let (($x2243 (= ?x2177 ?x2271)))
    (let ((?x2219 (ite MW_S2_V1 S2_V1_!285 V1_0)))
    (let ((?x2251 (+ 1 ?x2219)))
    (let ((?x2048 (ite MW_S2_V1 S2_V1_!290 ?x2251)))
    (let ((?x2231 (ite MW_S2_V1 S2_V1_!273 V1_0)))
    (let ((?x2282 (+ 1 ?x2231)))
    (let ((?x1975 (ite MW_S1_V1 S1_V1_!279 ?x2282)))
    (let (($x2075 (= ?x1975 ?x2048)))
    (let (($x2236 (and $x2075 $x2243 $x2058 $x2053 $x1908)))
    (let ((?x2239 (+ (- 1) ?x2252)))
    (let (($x2178 (>= ?x2048 ?x2239)))
    (let ((?x2157 (ite MW_S2_V2 S2_V2_!287 V2_0)))
    (let (($x2035 (<= ?x2157 ?x2251)))
    (let (($x2006 (not $x2035)))
    (let (($x2004 (not B1_!284)))
    (let ((?x1979 (+ (- 1) ?x2055)))
    (let (($x2230 (>= ?x1975 ?x1979)))
    (let (($x2174 (<= ?x1995 ?x2282)))
    (let (($x2161 (not $x2174)))
    (let (($x2041 (not B1_!272)))
    (let (($x2217 (<= V2_0 V1_0)))
    (let (($x1961 (not $x2217)))
    (let
    (($x2036 (and $x1961 $x2041 $x2161 B1_!278 $x2230 $x2004 $x2006 $x2178)))
    (let (($x2223 (not $x2036)))
    (let (($x2094 (not MW_S2_V5)))
    (let (($x2063 (or $x2094 W_S2_V5)))
    (let (($x2196 (not MW_S2_V2)))
    (let (($x2215 (or $x2196 W_S2_V2)))
    (let (($x2203 (not MW_S2_V3)))
    (let (($x2180 (or $x2203 W_S2_V3)))
    (let (($x2091 (not MW_S2_V1)))
    (let (($x2138 (or $x2091 W_S2_V1)))
    (let (($x2233 (not MW_S1_V4)))
    (let (($x2143 (or $x2233 W_S1_V4)))
    (let (($x2086 (not MW_S1_V5)))
    (let (($x2040 (or $x2086 W_S1_V5)))
    (let (($x2117 (not MW_S1_V2)))
    (let (($x2181 (or $x2117 W_S1_V2)))
    (let (($x2250 (not MW_S1_V1)))
    (let (($x1992 (or $x2250 W_S1_V1)))
    (let (($x1941 (= S2_V3_!291 S2_V3_!274)))
    (let ((?x1993 (ite MW_S2_V4 S2_V4_!289 V4_0)))
    (let (($x2101 (= ?x1993 V4_0)))
    (let (($x231 (not R_S2_V4)))
    (let (($x2279 (or $x231 $x2101)))
    (let ((?x2172 (ite MW_S2_V5 S2_V5_!288 V5_0)))
    (let (($x2170 (= ?x2172 V5_0)))
    (let (($x229 (not R_S2_V5)))
    (let (($x2062 (or $x229 $x2170)))
    (let (($x2015 (= ?x2157 V2_0)))
    (let (($x227 (not R_S2_V2)))
    (let (($x2263 (or $x227 $x2015)))
    (let ((?x2229 (ite MW_S2_V3 S2_V3_!286 V3_0)))
    (let (($x2218 (= ?x2229 V3_0)))
    (let (($x225 (not R_S2_V3)))
    (let (($x1934 (or $x225 $x2218)))
    (let ((?x2284 (+ (- 1) V1_0)))
    (let (($x1942 (= ?x2219 ?x2284)))
    (let (($x223 (not R_S2_V1)))
    (let (($x2007 (or $x223 $x1942)))
    (let (($x2130 (and $x2007 $x1934 $x2263 $x2062 $x2279)))
    (let (($x2064 (not $x2130)))
    (let (($x1944 (or $x2064 $x1941)))
    (let (($x2216 (= S2_V3_!286 S2_V3_!291)))
    (let (($x2142 (= V4_0 ?x1993)))
    (let (($x1938 (or $x231 $x2142)))
    (let (($x2144 (= V5_0 ?x2172)))
    (let (($x2060 (or $x229 $x2144)))
    (let (($x2273 (= V2_0 ?x2157)))
    (let (($x2139 (or $x227 $x2273)))
    (let (($x2212 (= V3_0 ?x2229)))
    (let (($x2183 (or $x225 $x2212)))
    (let (($x2147 (= V1_0 ?x2251)))
    (let (($x2148 (or $x223 $x2147)))
    (let (($x2115 (and $x2148 $x2183 $x2139 $x2060 $x1938)))
    (let (($x1994 (not $x2115)))
    (let (($x2034 (or $x1994 $x2216)))
    (let (($x2056 (= S2_V3_!286 S2_V3_!274)))
    (let (($x2067 (= S2_V2_!292 S2_V2_!275)))
    (let (($x2003 (or $x2064 $x2067)))
    (let (($x2134 (= S2_V2_!287 S2_V2_!292)))
    (let (($x2133 (or $x1994 $x2134)))
    (let (($x2059 (= S2_V2_!287 S2_V2_!275)))
    (let (($x1916 (= S2_V1_!290 S2_V1_!273)))
    (let (($x2280 (or $x2064 $x1916)))
    (let (($x1972 (= S2_V1_!285 S2_V1_!290)))
    (let (($x2227 (or $x1994 $x1972)))
    (let (($x2052 (= S2_V1_!285 S2_V1_!273)))
    (let (($x2232 (= S2_V5_!293 S2_V5_!288)))
    (let (($x1974 (or $x2064 $x2232)))
    (let (($x2068 (= S2_V5_!293 S2_V5_!276)))
    (let (($x2118 (or $x2064 $x2068)))
    (let (($x2234 (= S2_V5_!276 S2_V5_!288)))
    (let (($x1978 (= ?x2225 V4_0)))
    (let (($x197 (not R_B1_V4)))
    (let (($x2005 (or $x197 $x1978)))
    (let (($x2087 (= ?x2081 V5_0)))
    (let (($x195 (not R_B1_V5)))
    (let (($x2149 (or $x195 $x2087)))
    (let (($x2031 (= ?x1995 V2_0)))
    (let (($x193 (not R_B1_V2)))
    (let (($x1958 (or $x193 $x2031)))
    (let (($x2028 (= ?x2283 V3_0)))
    (let (($x191 (not R_B1_V3)))
    (let (($x1940 (or $x191 $x2028)))
    (let (($x1923 (= ?x2231 ?x2284)))
    (let (($x189 (not R_B1_V1)))
    (let (($x2121 (or $x189 $x1923)))
    (let (($x2128 (and $x2121 $x1940 $x1958 $x2149 $x2005)))
    (let (($x2072 (not $x2128)))
    (let (($x1967 (= S2_V4_!294 S2_V4_!277)))
    (let (($x1966 (or $x2064 $x1967)))
    (let (($x2162 (= S2_V4_!289 S2_V4_!294)))
    (let (($x2066 (or $x1994 $x2162)))
    (let (($x2069 (= S2_V4_!289 S2_V4_!277)))
    (let
    (($x2103
      (and $x2069 $x2066 $x1966 
      (= B1_!272 B1_!284) 
      (or $x2072 (= B1_!278 B1_!272)) 
      (or $x2072 (= B1_!278 B1_!284)) $x2234 $x2118 $x1974 $x2052 $x2227
      $x2280 $x2059 $x2133 $x2003 $x2056 $x2034 $x1944 $x1992 $x2181 $x2040
      $x2143 $x2138 $x2180 $x2215 $x2063))) 
    (or (not $x2103) $x2223 $x2236)))))))))))))))))))))))))))))))))))))))))))))))))))))))))))))))))))))))))))))))))))))))))))))))))))))))))))))))))))))))))))))))))))))))
 (let (($x90 (and W_S2_V5 R_B1_V5)))
 (let (($x89 (and W_S2_V2 R_B1_V2)))
 (let (($x88 (and W_S2_V3 R_B1_V3)))
 (let (($x87 (and W_S2_V1 R_B1_V1)))
 (let (($x116 (or $x87 $x88 $x89 $x90 R_B1_V4)))
 (let (($x117 (not $x116)))
 (let (($x118 (= DISJ_W_S2_R_B1 $x117)))
 (let (($x81 (and W_S2_V5 R_S2_V5)))
 (let (($x80 (and W_S2_V2 R_S2_V2)))
 (let (($x79 (and W_S2_V3 R_S2_V3)))
 (let (($x78 (and W_S2_V1 R_S2_V1)))
 (let (($x113 (or $x78 $x79 $x80 $x81 R_S2_V4)))
 (let (($x114 (not $x113)))
 (let (($x115 (= DISJ_W_S2_R_S2 $x114)))
 (let (($x72 (and W_S2_V5 R_S1_V5)))
 (let (($x71 (and W_S2_V2 R_S1_V2)))
 (let (($x70 (and W_S2_V3 R_S1_V3)))
 (let (($x69 (and W_S2_V1 R_S1_V1)))
 (let (($x110 (or $x69 $x70 $x71 $x72 R_S1_V4)))
 (let (($x111 (not $x110)))
 (let (($x112 (= DISJ_W_S2_R_S1 $x111)))
 (let (($x63 (and W_S1_V5 W_S2_V5)))
 (let (($x61 (and W_S1_V2 W_S2_V2)))
 (let (($x57 (and W_S1_V1 W_S2_V1)))
 (let (($x107 (or $x57 W_S2_V3 $x61 $x63 W_S1_V4)))
 (let (($x108 (not $x107)))
 (let (($x109 (= DISJ_W_S1_W_S2 $x108)))
 (let (($x51 (and W_S1_V4 R_B1_V4)))
 (let (($x49 (and W_S1_V5 R_B1_V5)))
 (let (($x47 (and W_S1_V2 R_B1_V2)))
 (let (($x43 (and W_S1_V1 R_B1_V1)))
 (let (($x104 (or $x43 R_B1_V3 $x47 $x49 $x51)))
 (let (($x105 (not $x104)))
 (let (($x106 (= DISJ_W_S1_R_B1 $x105)))
 (let (($x37 (and W_S1_V4 R_S2_V4)))
 (let (($x35 (and W_S1_V5 R_S2_V5)))
 (let (($x33 (and W_S1_V2 R_S2_V2)))
 (let (($x29 (and W_S1_V1 R_S2_V1)))
 (let (($x101 (or $x29 R_S2_V3 $x33 $x35 $x37)))
 (let (($x102 (not $x101)))
 (let (($x103 (= DISJ_W_S1_R_S2 $x102)))
 (let (($x23 (and W_S1_V4 R_S1_V4)))
 (let (($x20 (and W_S1_V5 R_S1_V5)))
 (let (($x17 (and W_S1_V2 R_S1_V2)))
 (let (($x12 (and W_S1_V1 R_S1_V1)))
 (let (($x98 (or $x12 R_S1_V3 $x17 $x20 $x23)))
 (let (($x99 (not $x98)))
 (let (($x100 (= DISJ_W_S1_R_S1 $x99)))
 (and W_S1_V3 W_S2_V4 $x100 $x103 $x106 $x109 $x112 $x115 $x118 $x2106)))))))))))))))))))))))))))))))))))))))))))))))))))
(assert
 (let (($x189 (not R_B1_V1)))
 (let (($x2522 (and $x189 DISJ_W_S2_R_B1))) (not $x2522))))
(check-sat)
(exit)

